W=7;
H=5;

MAX_TIME=61;
MAX_TRACKS=15;

TARGET=(5,7);

TRAINS=[(1,1,RIGHT),(2,1,RIGHT),(4,1,RIGHT),(5,1,RIGHT)];
DECOYS=[];

INIT_POS=[
(1,1,STRAIGHT_RL),
(1,3,DSWITCH_L_R_D),
(2,1,STRAIGHT_RL),
(2,3,SWITCH_D_T_L),
(2,4,STRAIGHT_TD),
(2,6,STRAIGHT_TD),
(2,7,ROCK),
(4,1,STRAIGHT_RL),
(4,3,STRAIGHT_TD),
(5,1,STRAIGHT_RL),
(5,6,ESWITCH_L_R_T),
(5,7,STRAIGHT_RL),
];
TUNNEL_PAIRS=[
  (2, 5, DOWN, 5, 2, LEFT),
];

GATES=[
(2,4,1,false),
];
ACTIVATIONS=[
(2,3,2),
(4,3,1),
];

DSWITCHES=[
(1,3,2),
];
STATIONS=[
  (2,6,1),
];

SEMAPHORE_SUPPLY=0;
